tsp_instances/TSP50/instance58.tsp
NODE_COORD_SECTION
0 192 127
1 27 175
2 82 169
3 72 180
4 147 185
5 102 189
6 140 51
7 161 39
8 182 42
9 12 141
10 145 10
11 127 157
12 162 140
13 122 191
14 43 97
15 21 119
16 152 91
17 108 39
18 27 145
19 72 11
20 157 164
21 191 106
22 34 175
23 33 140
24 75 5
25 60 139
26 22 63
27 178 146
28 0 107
29 94 155
30 95 69
31 135 7
32 3 166
33 92 66
34 182 135
35 31 86
36 75 34
37 8 188
38 51 48
39 0 190
40 58 56
41 52 4
42 101 11
43 127 87
44 53 197
45 49 145
46 48 189
47 190 200
48 2 31
49 86 64
