tsp_instances/TSP50/instance58.opt.tour
TOUR_SECTION
1
22
17
44
7
8
9
11
32
43
18
31
34
50
41
39
37
20
25
42
49
27
36
15
29
16
26
46
24
19
10
33
40
38
2
23
47
45
4
3
30
12
6
14
5
48
21
13
28
35
-1